AES/1_3_4/ssaes_r1-20_c3_rw1_e4_f0_k1-20_aes_min_box_aes_mc_bidirectional/ExperimentMinisat_r19_k1cnf_2011-10-29-153439/Result
WARNING: for repeatability, setting FPU to use double precision
============================[ Problem Statistics ]=============================
|                                                                             |
|  Number of variables:          1100                                         |
|  Number of clauses:            4456                                         |
|  Parse time:                   0.00 s                                       |
|  Eliminated clauses:           0.01 Mb                                      |
|  Simplification time:          0.00 s                                       |
|                                                                             |
=============================[ Search Statistics ]==============================
| Conflicts  |          ORIGINAL         |          LEARNT          | Progress |
|            |    Vars  Clauses Literals |    Limit  Clauses Lit/Cl |          |
================================================================================
|        100 |     760     3472    11608 |     1273      100     12 |  9.091 % |
|        250 |     760     3472    11608 |     1400      250     12 |  9.091 % |
|        475 |     760     3472    11608 |     1540      475     12 |  9.091 % |
|        812 |     760     3472    11608 |     1694      812     12 |  9.091 % |
|       1318 |     760     3472    11608 |     1863     1318     12 |  9.091 % |
|       2077 |     760     3472    11608 |     2050     1084      9 |  9.091 % |
|       3216 |     760     3472    11608 |     2255     1133      9 |  9.091 % |
===============================================================================
restarts              : 24
conflicts             : 4594           (26870 /sec)
decisions             : 6534           (0.00 % random) (38216 /sec)
propagations          : 724881         (4239715 /sec)
conflict literals     : 57795          (25.71 % deleted)
Memory used           : 8.00 MB
CPU time              : 0.170974 s

SATISFIABLE
